400
125 125
1 100 461
2 100 473
3 100 311
4 100 479
5 99 786
6 99 101
7 99 419
8 99 308
9 99 87
10 99 904
11 99 4
12 98 318
13 98 927
14 98 177
15 98 993
16 98 744
17 98 962
18 98 758
19 97 14
20 97 516
21 97 697
22 97 184
23 97 865
24 96 577
25 96 395
26 96 527
27 96 587
28 96 836
29 95 450
30 95 544
31 95 436
32 95 427
33 95 781
34 94 238
35 94 428
36 93 129
37 93 878
38 92 375
39 92 689
40 91 77
41 91 543
42 91 976
43 91 762
44 91 73
45 90 390
46 89 570
47 89 522
48 89 144
49 89 214
50 89 70
51 89 798
52 89 323
53 88 161
54 88 928
55 88 362
56 88 343
57 88 13
58 88 424
59 88 432
60 88 995
61 87 247
62 87 304
63 86 431
64 86 706
65 86 606
66 85 853
67 85 648
68 84 619
69 84 691
70 84 352
71 84 404
72 84 834
73 84 897
74 83 884
75 83 60
76 83 165
77 83 711
78 82 130
79 82 153
80 82 73
81 82 826
82 82 870
83 81 750
84 80 363
85 80 625
86 80 565
87 80 552
88 80 111
89 80 727
90 79 45
91 79 381
92 78 517
93 78 301
94 78 352
95 77 248
96 76 901
97 76 868
98 76 501
99 75 95
100 75 695
101 75 55
102 75 176
103 75 210
104 75 662
105 75 281
106 74 227
107 74 666
108 74 44
109 74 494
110 74 565
111 74 367
112 74 453
113 73 894
114 73 730
115 73 776
116 73 832
117 73 181
118 73 291
119 73 911
120 72 785
121 72 511
122 72 180
123 72 369
124 71 63
125 71 167
126 71 52
127 71 706
128 70 630
129 70 941
130 70 478
131 70 828
132 69 878
133 69 201
134 69 492
135 68 638
136 68 624
137 68 604
138 68 976
139 67 435
140 67 554
141 67 301
142 67 979
143 66 368
144 66 308
145 66 6
146 66 323
147 66 501
148 66 387
149 66 884
150 66 81
151 65 850
152 65 537
153 64 641
154 64 553
155 64 593
156 64 883
157 64 68
158 64 270
159 64 314
160 64 148
161 64 290
162 63 880
163 63 260
164 63 433
165 62 777
166 62 742
167 62 530
168 62 776
169 62 476
170 62 193
171 62 117
172 61 839
173 61 946
174 61 962
175 61 970
176 61 132
177 61 2
178 60 902
179 60 687
180 60 439
181 60 998
182 59 429
183 59 443
184 59 197
185 59 429
186 58 979
187 58 354
188 57 810
189 57 262
190 56 79
191 56 493
192 56 793
193 56 265
194 56 6
195 55 267
196 55 322
197 55 477
198 55 114
199 54 353
200 54 149
201 54 717
202 54 872
203 54 581
204 53 819
205 53 92
206 53 430
207 53 954
208 53 402
209 52 374
210 52 314
211 52 838
212 52 951
213 52 979
214 52 932
215 52 678
216 52 18
217 52 545
218 51 660
219 51 978
220 51 291
221 51 629
222 51 532
223 51 998
224 50 536
225 50 946
226 49 270
227 49 437
228 49 960
229 49 631
230 48 898
231 48 380
232 48 614
233 48 2
234 48 54
235 48 556
236 47 506
237 47 628
238 47 812
239 47 729
240 47 347
241 47 999
242 47 531
243 47 65
244 47 253
245 47 260
246 47 139
247 46 670
248 46 400
249 46 116
250 46 202
251 46 150
252 45 666
253 45 655
254 45 146
255 45 293
256 45 558
257 45 452
258 45 316
259 45 251
260 45 803
261 45 629
262 44 287
263 44 358
264 44 808
265 44 677
266 44 799
267 44 617
268 43 378
269 43 563
270 42 800
271 42 488
272 42 543
273 42 763
274 42 577
275 42 390
276 41 269
277 41 256
278 41 219
279 41 55
280 41 790
281 41 578
282 40 836
283 40 753
284 40 587
285 40 795
286 40 190
287 40 38
288 40 91
289 40 438
290 39 33
291 39 965
292 39 653
293 39 16
294 39 559
295 38 788
296 38 521
297 38 122
298 38 274
299 38 489
300 38 971
301 37 357
302 37 945
303 37 564
304 36 304
305 36 343
306 36 206
307 36 93
308 35 149
309 34 924
310 34 407
311 34 517
312 33 409
313 33 479
314 33 983
315 33 948
316 33 929
317 33 118
318 33 6
319 32 881
320 32 912
321 31 60
322 31 604
323 31 853
324 31 770
325 31 199
326 30 399
327 30 324
328 30 505
329 30 555
330 29 631
331 28 444
332 28 31
333 28 527
334 28 694
335 27 558
336 27 898
337 27 256
338 26 200
339 26 583
340 26 580
341 25 287
342 25 16
343 25 706
344 24 687
345 24 350
346 24 222
347 24 877
348 23 384
349 23 168
350 23 957
351 23 401
352 22 781
353 22 885
354 22 809
355 22 657
356 22 201
357 21 555
358 21 273
359 21 23
360 21 888
361 21 864
362 21 220
363 20 332
364 20 784
365 20 263
366 20 556
367 20 126
368 19 520
369 19 157
370 19 182
371 18 975
372 18 54
373 18 303
374 18 362
375 18 243
376 17 714
377 17 52
378 17 972
379 16 464
380 16 312
381 16 534
382 16 613
383 16 380
384 16 85
385 16 736
386 16 473
387 15 362
388 15 637
389 15 712
390 14 253
391 14 96
392 14 453
393 14 533
394 14 307
395 13 160
396 12 441
397 12 667
398 12 286
399 12 996
400 12 728
